 C  O                                   
   1.00000000000000     
    10.0000000000000000    0.0000000000000000    0.0000000000000000
     0.0000000000000000   10.0000000000000000    0.0000000000000000
     0.0000000000000000    0.0000000000000000   10.0000000000000000
   C    O 
     1     2
Direct
  0.5000000010469208  0.5000000018251711  0.5000000007423893
  0.5000000136556437  0.5000000021007125  0.6163462050058328
  0.4999999852974355  0.4999999960741377  0.3816537942517779
 
  0.00000000E+00  0.00000000E+00  0.00000000E+00
  0.00000000E+00  0.00000000E+00  0.00000000E+00
  0.00000000E+00  0.00000000E+00  0.00000000E+00
