 C  O                                   
   1.00000000000000     
    10.0000000000000000    0.0000000000000000    0.0000000000000000
     0.0000000000000000   10.0000000000000000    0.0000000000000000
     0.0000000000000000    0.0000000000000000   10.0000000000000000
   C    O 
     1     2
Direct
  0.5000000010469193  0.5000000018251683  0.5000000007423859
  0.5000000136556463  0.5000000021007133  0.6163462050058318
  0.4999999852974363  0.4999999960741409  0.3836537942517780
 
  0.00000000E+00  0.00000000E+00  0.00000000E+00
  0.00000000E+00  0.00000000E+00  0.00000000E+00
  0.00000000E+00  0.00000000E+00  0.00000000E+00
